Running MiniSat on FULL_RUN_MINISAT\31e788a12ddc8b43ec20e77d53abaa23-pcmax-scheduling-m40-26287-324155-SAT.sanitized.cnf... 
============================[ Problem Statistics ]=============================
|                                                                             |
|  Number of variables:         26286                                         |
|  Number of clauses:          319289                                         |
|  Parse time:                   0.48 s                                       |
|                                                                             |
============================[ Search Statistics ]==============================
| Conflicts |          ORIGINAL         |          LEARNT          | Progress |
|           |    Vars  Clauses Literals |    Limit  Clauses Lit/Cl |          |
===============================================================================
|       100 |   25883   311093   815965 |   114067       98      8 |  1.533 % |
|       250 |   25882   311093   815965 |   125474      247      7 |  1.537 % |
|       475 |   25882   311093   815965 |   138021      472      7 |  1.537 % |
|       812 |   25882   311093   815965 |   151823      809     22 |  1.537 % |
|      1318 |   25882   310636   815015 |   167006     1314     45 |  1.537 % |
|      2077 |   25873   310636   815015 |   183706     2069     45 |  1.571 % |
|      3216 |   25873   309632   812863 |   202077     3198     36 |  1.571 % |
|      4924 |   25872   309632   812863 |   222285     4905     48 |  1.575 % |
|      7486 |   25872   309619   812834 |   244513     7466    103 |  1.575 % |
|     11330 |   25871   309447   812472 |   268965    11302    119 |  1.579 % |
|     17096 |   25871   309447   812472 |   295861    17068    132 |  1.579 % |
|     25745 |   25867   309427   812429 |   325447    25713    178 |  1.594 % |
|     38719 |   25864   309314   812198 |   357992    38665    186 |  1.605 % |
ERROR: MiniSat process not found for FULL_RUN_MINISAT\32585e66749f42e161e94fc49fd64750-pcmax-scheduling-m26-6398-62377-UNSAT.sanitized.cnf 
Finished MiniSat on FULL_RUN_MINISAT\32585e66749f42e161e94fc49fd64750-pcmax-scheduling-m26-6398-62377-UNSAT.sanitized.cnf